20
58
10
77
30
18
82
76
78
88
20
95
26
0 1
0 10
0 14
0 19
1 5
1 7
1 9
1 10
1 13
1 16
1 17
1 19
2 3
2 4
2 6
2 11
2 12
2 15
2 18
3 4
3 5
3 6
3 9
3 15
3 16
4 5
4 10
4 11
4 17
5 6
5 17
6 7
6 9
6 14
6 16
6 18
7 15
7 18
8 9
8 15
8 16
8 18
8 19
9 15
10 17
10 19
11 12
11 15
11 16
12 14
12 15
13 17
13 18
14 16
14 17
16 18
16 19
17 19
16 9
7 13
2 4
19 3
0 1
15 5
6 18
8 11
17 10
14 12
